NAME: cuum50.tsp
TYPE: TSP
COMMENT: User-generated TSP file
DIMENSION: 50
EDGE_WEIGHT_TYPE: EUC_2D
NODE_COORD_SECTION
1 25.0 9.0
2 19.0 44.0
3 31.0 37.0
4 44.0 48.0
5 20.0 16.0
6 50.0 38.0
7 27.0 38.0
8 41.0 11.0
9 44.0 23.0
10 26.0 11.0
11 24.0 24.0
12 27.0 8.0
13 35.0 6.0
14 34.0 4.0
15 18.0 10.0
16 36.0 42.0
17 16.0 16.0
18 40.0 41.0
19 50.0 21.0
20 15.0 48.0
21 17.0 27.0
22 20.0 13.0
23 7.0 50.0
24 11.0 48.0
25 45.0 11.0
26 42.0 25.0
27 47.0 5.0
28 3.0 23.0
29 36.0 14.0
30 8.0 8.0
31 47.0 30.0
32 33.0 1.0
33 37.0 33.0
34 20.0 12.0
35 44.0 49.0
36 15.0 19.0
37 6.0 16.0
38 15.0 7.0
39 40.0 30.0
40 35.0 39.0
41 49.0 17.0
42 50.0 10.0
43 8.0 39.0
44 23.0 49.0
45 25.0 32.0
46 44.0 39.0
47 20.0 45.0
48 13.0 3.0
49 36.0 48.0
50 7.0 43.0
EOF





